
Gurobi 9.5.2 (mac64[arm]) logging started Thu Apr 27 19:54:25 2023

Set parameter LogFile to value "Java/output/iterative_model_full/scenario_seed_2_nJob_50_machineCount_1/mip_increment_2/log.txt"
Gurobi Optimizer version 9.5.2 build v9.5.2rc0 (mac64[arm])
Thread count: 8 physical cores, 8 logical processors, using up to 8 threads
Optimize a model with 1440 rows, 10669 columns and 75041 nonzeros
Model fingerprint: 0x18155d18
Variable types: 0 continuous, 10669 integer (10669 binary)
Coefficient statistics:
  Matrix range     [1e+00, 5e+02]
  Objective range  [2e+01, 2e+07]
  Bounds range     [1e+00, 1e+00]
  RHS range        [1e+00, 1e+00]
Found heuristic solution: objective 9.585256e+07
Presolve removed 25 rows and 449 columns
Presolve time: 0.09s
Presolved: 1415 rows, 10220 columns, 70228 nonzeros
Variable types: 0 continuous, 10220 integer (10212 binary)
Found heuristic solution: objective 4.922555e+07

Root relaxation: objective 1.551929e+04, 2371 iterations, 0.08 seconds (0.17 work units)

    Nodes    |    Current Node    |     Objective Bounds      |     Work
 Expl Unexpl |  Obj  Depth IntInf | Incumbent    BestBd   Gap | It/Node Time

     0     0 15519.2906    0   86 4.9226e+07 15519.2906   100%     -    0s
H    0     0                    1.359230e+07 15519.2906   100%     -    0s
H    0     0                    249488.00000 15568.3357  93.8%     -    0s
     0     0 15568.3357    0  147 249488.000 15568.3357  93.8%     -    0s
H    0     0                    249424.00000 15568.3357  93.8%     -    0s
H    0     0                    249392.00000 15568.3357  93.8%     -    0s
H    0     0                    16912.000000 15568.3357  7.95%     -    0s
     0     0 15576.9870    0  150 16912.0000 15576.9870  7.89%     -    0s
     0     0 15576.9870    0  152 16912.0000 15576.9870  7.89%     -    0s
     0     0 15596.8621    0  168 16912.0000 15596.8621  7.78%     -    0s
     0     0 15596.8621    0   86 16912.0000 15596.8621  7.78%     -    0s
H    0     0                    16752.000000 15596.8621  6.90%     -    0s
H    0     0                    16688.000000 15596.8621  6.54%     -    0s
     0     0 15596.8621    0  149 16688.0000 15596.8621  6.54%     -    0s
H    0     0                    16656.000000 15596.8621  6.36%     -    0s
H    0     0                    16528.000000 15596.8621  5.63%     -    0s
     0     0 15596.8621    0  151 16528.0000 15596.8621  5.63%     -    0s
     0     0 15601.0794    0  155 16528.0000 15601.0794  5.61%     -    0s
     0     0 15601.3193    0  144 16528.0000 15601.3193  5.61%     -    0s
     0     0 15601.3193    0  144 16528.0000 15601.3193  5.61%     -    0s
H    0     0                    16496.000000 15601.3193  5.42%     -    0s
     0     0 15626.2806    0  203 16496.0000 15626.2806  5.27%     -    1s
H    0     0                    16464.000000 15626.2806  5.09%     -    1s
     0     0 15629.4777    0  206 16464.0000 15629.4777  5.07%     -    1s
     0     0 15630.0329    0  209 16464.0000 15630.0329  5.07%     -    1s
     0     0 15630.0329    0  211 16464.0000 15630.0329  5.07%     -    1s
H    0     0                    16400.000000 15630.0329  4.69%     -    1s
     0     0 15650.8678    0  212 16400.0000 15650.8678  4.57%     -    1s
H    0     0                    16304.000000 15650.8678  4.01%     -    1s
     0     0 15653.4080    0  244 16304.0000 15653.4080  3.99%     -    1s
     0     0 15654.6970    0  250 16304.0000 15654.6970  3.98%     -    1s
     0     0 15654.9760    0  240 16304.0000 15654.9760  3.98%     -    1s
     0     0 15654.9773    0  238 16304.0000 15654.9773  3.98%     -    1s
     0     0 15664.1585    0  232 16304.0000 15664.1585  3.92%     -    1s
H    0     0                    16272.000000 15664.1585  3.74%     -    1s
     0     0 15666.7251    0  222 16272.0000 15666.7251  3.72%     -    1s
     0     0 15667.8109    0  235 16272.0000 15667.8109  3.71%     -    1s
     0     0 15668.2738    0  236 16272.0000 15668.2738  3.71%     -    1s
     0     0 15668.3192    0  234 16272.0000 15668.3192  3.71%     -    1s
     0     0 15671.0238    0  260 16272.0000 15671.0238  3.69%     -    1s
     0     0 15671.8816    0  244 16272.0000 15671.8816  3.69%     -    1s
     0     0 15672.1402    0  241 16272.0000 15672.1402  3.69%     -    1s
     0     0 15672.1646    0  261 16272.0000 15672.1646  3.69%     -    1s
     0     0 15675.4688    0  237 16272.0000 15675.4688  3.67%     -    1s
     0     0 15675.8499    0  247 16272.0000 15675.8499  3.66%     -    1s
     0     0 15675.8818    0  245 16272.0000 15675.8818  3.66%     -    1s
     0     0 15679.4667    0  259 16272.0000 15679.4667  3.64%     -    1s
     0     0 15682.5752    0  262 16272.0000 15682.5752  3.62%     -    1s
     0     0 15682.8410    0  269 16272.0000 15682.8410  3.62%     -    1s
     0     0 15682.9853    0  267 16272.0000 15682.9853  3.62%     -    1s
     0     0 15683.0069    0  269 16272.0000 15683.0069  3.62%     -    1s
     0     0 15685.3039    0  258 16272.0000 15685.3039  3.61%     -    1s
     0     0 15685.8853    0  268 16272.0000 15685.8853  3.60%     -    1s
     0     0 15686.1974    0  277 16272.0000 15686.1974  3.60%     -    1s
     0     0 15686.2234    0  279 16272.0000 15686.2234  3.60%     -    1s
     0     0 15688.0696    0  271 16272.0000 15688.0696  3.59%     -    1s
     0     0 15688.1416    0  275 16272.0000 15688.1416  3.59%     -    1s
     0     0 15688.5584    0  273 16272.0000 15688.5584  3.59%     -    1s
     0     0 15688.5584    0  239 16272.0000 15688.5584  3.59%     -    1s
     0     2 15688.9898    0  238 16272.0000 15688.9898  3.58%     -    1s
H   73    80                    16144.000000 15707.1771  2.71%   710    2s
H   78    80                    15920.000000 15707.1771  1.34%   699    2s
   468   206 15778.5951    8  269 15920.0000 15740.4158  1.13%   603    5s
  1459   216     cutoff   14      15920.0000 15827.9758  0.58%   556   10s

Cutting planes:
  Gomory: 6
  Cover: 96
  Clique: 124
  MIR: 146
  StrongCG: 62
  GUB cover: 94
  Inf proof: 9
  Zero half: 33
  Mod-K: 2
  RLT: 7
  Relax-and-lift: 4

Explored 3132 nodes (1334863 simplex iterations) in 12.87 seconds (30.29 work units)
Thread count was 8 (of 8 available processors)

Solution count 10: 15920 16144 16272 ... 16688

Optimal solution found (tolerance 1.00e-04)
Best objective 1.592000000000e+04, best bound 1.592000000000e+04, gap 0.0000%

Gurobi 9.5.2 (mac64[arm]) logging started Thu Apr 27 19:54:38 2023

Set parameter LogFile to value "Java/output/iterative_model_full/scenario_seed_2_nJob_50_machineCount_1/mip_increment_2/log.txt"
Gurobi Optimizer version 9.5.2 build v9.5.2rc0 (mac64[arm])
Thread count: 8 physical cores, 8 logical processors, using up to 8 threads
Optimize a model with 1448 rows, 8968 columns and 61047 nonzeros
Model fingerprint: 0x7a1662ce
Variable types: 0 continuous, 8968 integer (8968 binary)
Coefficient statistics:
  Matrix range     [1e+00, 5e+02]
  Objective range  [3e+02, 3e+06]
  Bounds range     [1e+00, 1e+00]
  RHS range        [1e+00, 1e+00]
Presolve removed 348 rows and 741 columns
Presolve time: 0.07s
Presolved: 1100 rows, 8227 columns, 54138 nonzeros
Variable types: 0 continuous, 8227 integer (8215 binary)

Root relaxation: objective 1.059303e+04, 2445 iterations, 0.10 seconds (0.20 work units)

    Nodes    |    Current Node    |     Objective Bounds      |     Work
 Expl Unexpl |  Obj  Depth IntInf | Incumbent    BestBd   Gap | It/Node Time

     0     0 10593.0284    0  129          - 10593.0284      -     -    0s
     0     0 10596.7274    0  207          - 10596.7274      -     -    0s
     0     0 10596.8999    0  202          - 10596.8999      -     -    0s
     0     0 10596.8999    0  203          - 10596.8999      -     -    0s
     0     0 10601.4422    0  219          - 10601.4422      -     -    0s
H    0     0                    8245452.0000 10601.4422   100%     -    0s
H    0     0                    6165196.0000 10601.4422   100%     -    0s
     0     0 10604.4563    0  219 6165196.00 10604.4563   100%     -    0s
     0     0 10604.4663    0  225 6165196.00 10604.4663   100%     -    0s
     0     0 10604.5913    0  226 6165196.00 10604.5913   100%     -    0s
     0     0 10604.6000    0  236 6165196.00 10604.6000   100%     -    0s
     0     0 10604.6000    0  236 6165196.00 10604.6000   100%     -    0s
     0     0 10611.2364    0  237 6165196.00 10611.2364   100%     -    0s
H    0     0                    1450796.0000 10611.2364  99.3%     -    0s
H    0     0                    285852.00000 10611.2364  96.3%     -    1s
     0     0 10613.0226    0  244 285852.000 10613.0226  96.3%     -    1s
     0     0 10613.5653    0  243 285852.000 10613.5653  96.3%     -    1s
     0     0 10613.5784    0  245 285852.000 10613.5784  96.3%     -    1s
     0     0 10613.5794    0  251 285852.000 10613.5794  96.3%     -    1s
     0     0 10620.3021    0  295 285852.000 10620.3021  96.3%     -    1s
     0     0 10621.8417    0  308 285852.000 10621.8417  96.3%     -    1s
     0     0 10622.0442    0  315 285852.000 10622.0442  96.3%     -    1s
     0     0 10622.1369    0  318 285852.000 10622.1369  96.3%     -    1s
     0     0 10622.1426    0  319 285852.000 10622.1426  96.3%     -    1s
     0     0 10626.4240    0  322 285852.000 10626.4240  96.3%     -    1s
     0     0 10627.0032    0  328 285852.000 10627.0032  96.3%     -    1s
     0     0 10627.1953    0  339 285852.000 10627.1953  96.3%     -    1s
     0     0 10627.2282    0  338 285852.000 10627.2282  96.3%     -    1s
     0     0 10627.2905    0  336 285852.000 10627.2905  96.3%     -    1s
     0     0 10627.2985    0  337 285852.000 10627.2985  96.3%     -    1s
     0     0 10630.1352    0  351 285852.000 10630.1352  96.3%     -    1s
H    0     0                    270156.00000 10630.1352  96.1%     -    1s
     0     0 10630.6525    0  369 270156.000 10630.6525  96.1%     -    1s
     0     0 10630.7588    0  377 270156.000 10630.7588  96.1%     -    1s
     0     0 10630.8181    0  374 270156.000 10630.8181  96.1%     -    1s
     0     0 10630.8509    0  383 270156.000 10630.8509  96.1%     -    1s
     0     0 10630.8509    0  384 270156.000 10630.8509  96.1%     -    1s
     0     0 10633.5765    0  368 270156.000 10633.5765  96.1%     -    1s
     0     0 10633.5765    0  127 270156.000 10633.5765  96.1%     -    2s
H    0     0                    199996.00000 10633.5765  94.7%     -    2s
     0     0 10633.5765    0  219 199996.000 10633.5765  94.7%     -    2s
     0     0 10633.5765    0  289 199996.000 10633.5765  94.7%     -    2s
     0     0 10633.5765    0  316 199996.000 10633.5765  94.7%     -    2s
     0     0 10633.5765    0  356 199996.000 10633.5765  94.7%     -    2s
H    0     0                    181860.00000 10633.5765  94.2%     -    2s
H    0     0                    66076.000000 10633.5765  83.9%     -    2s
     0     0 10634.1160    0  356 66076.0000 10634.1160  83.9%     -    2s
     0     0 10634.2734    0  355 66076.0000 10634.2734  83.9%     -    2s
     0     0 10634.2853    0  361 66076.0000 10634.2853  83.9%     -    2s
     0     0 10634.2864    0  364 66076.0000 10634.2864  83.9%     -    2s
H    0     0                    61700.000000 10634.2864  82.8%     -    2s
H    0     0                    61644.000000 10634.2864  82.7%     -    2s
     0     0 10637.3993    0  382 61644.0000 10637.3993  82.7%     -    2s
     0     0 10637.6294    0  386 61644.0000 10637.6294  82.7%     -    2s
     0     0 10637.6474    0  383 61644.0000 10637.6474  82.7%     -    2s
     0     0 10640.7874    0  393 61644.0000 10640.7874  82.7%     -    2s
H    0     0                    61540.000000 10640.7874  82.7%     -    2s
     0     0 10641.0238    0  392 61540.0000 10641.0238  82.7%     -    2s
     0     0 10641.0284    0  397 61540.0000 10641.0284  82.7%     -    2s
     0     0 10645.4938    0  384 61540.0000 10645.4938  82.7%     -    2s
H    0     0                    60236.000000 10645.4938  82.3%     -    3s
     0     0 10646.2241    0  378 60236.0000 10646.2241  82.3%     -    3s
     0     0 10646.3869    0  390 60236.0000 10646.3869  82.3%     -    3s
     0     0 10646.4288    0  390 60236.0000 10646.4288  82.3%     -    3s
H    0     0                    27180.000000 10646.4288  60.8%     -    3s
     0     0 10648.2123    0  386 27180.0000 10648.2123  60.8%     -    3s
H    0     0                    27164.000000 10648.2123  60.8%     -    3s
H    0     0                    27012.000000 10648.2123  60.6%     -    3s
     0     0 10648.7809    0  381 27012.0000 10648.7809  60.6%     -    3s
     0     0 10648.8401    0  390 27012.0000 10648.8401  60.6%     -    3s
     0     0 10648.9130    0  397 27012.0000 10648.9130  60.6%     -    3s
     0     0 10648.9417    0  402 27012.0000 10648.9417  60.6%     -    3s
     0     0 10650.4978    0  396 27012.0000 10650.4978  60.6%     -    3s
     0     0 10650.9157    0  400 27012.0000 10650.9157  60.6%     -    3s
     0     0 10650.9390    0  404 27012.0000 10650.9390  60.6%     -    3s
     0     0 10651.3506    0  408 27012.0000 10651.3506  60.6%     -    3s
H    0     0                    26988.000000 10651.3506  60.5%     -    3s
     0     0 10651.5434    0  402 26988.0000 10651.5434  60.5%     -    3s
     0     0 10651.6730    0  412 26988.0000 10651.6730  60.5%     -    3s
H    0     0                    11148.000000 10651.6730  4.45%     -    3s
     0     0 10651.7329    0  430 11148.0000 10651.7329  4.45%     -    3s
     0     0 10654.0596    0  394 11148.0000 10654.0596  4.43%     -    3s
     0     0 10654.0596    0  131 11148.0000 10654.0596  4.43%     -    3s
H    0     0                    11116.000000 10654.0596  4.16%     -    3s
H    0     0                    11068.000000 10654.0596  3.74%     -    3s
     0     0 10654.0596    0  234 11068.0000 10654.0596  3.74%     -    3s
     0     0 10654.0596    0  254 11068.0000 10654.0596  3.74%     -    3s
     0     0 10654.0596    0  303 11068.0000 10654.0596  3.74%     -    4s
     0     0 10654.0596    0  330 11068.0000 10654.0596  3.74%     -    4s
     0     0 10654.0596    0  336 11068.0000 10654.0596  3.74%     -    4s
     0     0 10655.4231    0  347 11068.0000 10655.4231  3.73%     -    4s
     0     0 10655.7045    0  341 11068.0000 10655.7045  3.73%     -    4s
     0     0 10655.7563    0  357 11068.0000 10655.7563  3.72%     -    4s
     0     0 10655.7630    0  359 11068.0000 10655.7630  3.72%     -    4s
     0     0 10660.2746    0  378 11068.0000 10660.2746  3.68%     -    4s
H    0     0                    11060.000000 10660.2746  3.61%     -    4s
     0     0 10660.9990    0  376 11060.0000 10660.9990  3.61%     -    4s
     0     0 10661.1439    0  389 11060.0000 10661.1439  3.61%     -    4s
H    0     0                    11052.000000 10661.1439  3.54%     -    4s
     0     0 10661.1807    0  392 11052.0000 10661.1807  3.54%     -    4s
H    0     0                    11036.000000 10661.1807  3.40%     -    4s
     0     0 10667.5005    0  383 11036.0000 10667.5005  3.34%     -    4s
     0     0 10668.0454    0  402 11036.0000 10668.0454  3.33%     -    4s
     0     0 10668.2404    0  408 11036.0000 10668.2404  3.33%     -    4s
     0     0 10668.2910    0  412 11036.0000 10668.2910  3.33%     -    4s
     0     0 10671.1401    0  416 11036.0000 10671.1401  3.31%     -    4s
     0     0 10671.8219    0  413 11036.0000 10671.8219  3.30%     -    4s
     0     0 10671.9787    0  424 11036.0000 10671.9787  3.30%     -    4s
     0     0 10672.2070    0  412 11036.0000 10672.2070  3.30%     -    4s
     0     0 10672.2607    0  415 11036.0000 10672.2607  3.30%     -    4s
     0     0 10673.5828    0  416 11036.0000 10673.5828  3.28%     -    4s
     0     0 10673.9041    0  423 11036.0000 10673.9041  3.28%     -    4s
     0     0 10674.0206    0  425 11036.0000 10674.0206  3.28%     -    4s
     0     0 10674.0896    0  425 11036.0000 10674.0896  3.28%     -    4s
     0     0 10675.3159    0  433 11036.0000 10675.3159  3.27%     -    4s
     0     0 10675.6666    0  436 11036.0000 10675.6666  3.27%     -    4s
     0     0 10675.8074    0  440 11036.0000 10675.8074  3.26%     -    4s
     0     0 10675.8608    0  450 11036.0000 10675.8608  3.26%     -    4s
     0     0 10677.3248    0  439 11036.0000 10677.3248  3.25%     -    5s
     0     0 10677.5753    0  443 11036.0000 10677.5753  3.25%     -    5s
     0     0 10677.7048    0  455 11036.0000 10677.7048  3.25%     -    5s
     0     0 10677.7317    0  460 11036.0000 10677.7317  3.25%     -    5s
H    0     0                    10892.000000 10677.7317  1.97%     -    5s
     0     0 10679.6657    0  442 10892.0000 10679.6657  1.95%     -    5s
     0     0 10680.4046    0  452 10892.0000 10680.4046  1.94%     -    5s
     0     0 10680.6367    0  435 10892.0000 10680.6367  1.94%     -    5s
     0     0 10680.7639    0  457 10892.0000 10680.7639  1.94%     -    5s
     0     0 10680.8431    0  451 10892.0000 10680.8431  1.94%     -    5s
     0     0 10681.3467    0  453 10892.0000 10681.3467  1.93%     -    5s
     0     0 10681.7789    0  448 10892.0000 10681.7789  1.93%     -    5s
     0     0 10681.9095    0  458 10892.0000 10681.9095  1.93%     -    5s
     0     0 10681.9526    0  451 10892.0000 10681.9526  1.93%     -    5s
     0     0 10683.4570    0  452 10892.0000 10683.4570  1.91%     -    5s
     0     0 10683.8851    0  466 10892.0000 10683.8851  1.91%     -    5s
     0     0 10684.0240    0  470 10892.0000 10684.0240  1.91%     -    5s
     0     0 10684.0532    0  474 10892.0000 10684.0532  1.91%     -    5s
H    0     0                    10860.000000 10684.0532  1.62%     -    5s
     0     0 10686.1095    0  475 10860.0000 10686.1095  1.60%     -    5s
     0     0 10686.4013    0  487 10860.0000 10686.4013  1.60%     -    5s
     0     0 10686.5654    0  487 10860.0000 10686.5654  1.60%     -    5s
     0     0 10686.6653    0  485 10860.0000 10686.6653  1.60%     -    5s
     0     0 10688.1043    0  468 10860.0000 10688.1043  1.58%     -    5s
     0     0 10688.6308    0  480 10860.0000 10688.6308  1.58%     -    5s
     0     0 10688.8816    0  482 10860.0000 10688.8816  1.58%     -    5s
     0     0 10688.9697    0  490 10860.0000 10688.9697  1.57%     -    5s
     0     0 10689.2706    0  481 10860.0000 10689.2706  1.57%     -    5s
     0     0 10689.2706    0  476 10860.0000 10689.2706  1.57%     -    6s
     0     2 10689.2908    0  475 10860.0000 10689.2908  1.57%     -    6s
H   65    61                    10852.000000 10699.8738  1.40%   867    7s
H  114    81                    10836.000000 10705.9736  1.20%   811    8s
   264   149 10787.2980   18  310 10836.0000 10705.9736  1.20%   657   10s
   848   341 10812.5195   13  239 10836.0000 10730.4913  0.97%   516   15s

Cutting planes:
  Gomory: 1
  Cover: 33
  Clique: 107
  MIR: 309
  StrongCG: 122
  GUB cover: 120
  Inf proof: 1
  Zero half: 17
  Mod-K: 1
  RLT: 5
  Relax-and-lift: 1

Explored 1769 nodes (856699 simplex iterations) in 19.01 seconds (47.11 work units)
Thread count was 8 (of 8 available processors)

Solution count 10: 10836 10852 10860 ... 11148

Time limit reached
Best objective 1.083600000000e+04, best bound 1.075200000000e+04, gap 0.7752%

Gurobi 9.5.2 (mac64[arm]) logging started Thu Apr 27 19:54:57 2023

Set parameter LogFile to value "Java/output/iterative_model_full/scenario_seed_2_nJob_50_machineCount_1/mip_increment_2/log.txt"
Gurobi Optimizer version 9.5.2 build v9.5.2rc0 (mac64[arm])
Thread count: 8 physical cores, 8 logical processors, using up to 8 threads
Optimize a model with 1458 rows, 7270 columns and 54296 nonzeros
Model fingerprint: 0x5df7e9ce
Variable types: 0 continuous, 7270 integer (7270 binary)
Coefficient statistics:
  Matrix range     [1e+00, 5e+02]
  Objective range  [2e+02, 4e+05]
  Bounds range     [1e+00, 1e+00]
  RHS range        [1e+00, 1e+00]
Presolve removed 611 rows and 686 columns
Presolve time: 0.06s
Presolved: 847 rows, 6584 columns, 47273 nonzeros
Variable types: 0 continuous, 6584 integer (6568 binary)

Root relaxation: objective 4.772728e+03, 3540 iterations, 0.14 seconds (0.26 work units)

    Nodes    |    Current Node    |     Objective Bounds      |     Work
 Expl Unexpl |  Obj  Depth IntInf | Incumbent    BestBd   Gap | It/Node Time

     0     0 4772.72782    0  158          - 4772.72782      -     -    0s
     0     0 4779.64158    0  207          - 4779.64158      -     -    0s
     0     0 4779.77006    0  207          - 4779.77006      -     -    0s
     0     0 4784.49665    0  290          - 4784.49665      -     -    0s
     0     0 4785.30591    0  300          - 4785.30591      -     -    0s
     0     0 4785.35602    0  283          - 4785.35602      -     -    0s
     0     0 4785.35998    0  288          - 4785.35998      -     -    0s
     0     0 4785.35998    0  288          - 4785.35998      -     -    0s
     0     0 4788.17742    0  327          - 4788.17742      -     -    1s
     0     0 4790.03548    0  328          - 4790.03548      -     -    1s
     0     0 4790.14619    0  330          - 4790.14619      -     -    1s
     0     0 4790.15839    0  338          - 4790.15839      -     -    1s
     0     0 4790.16104    0  339          - 4790.16104      -     -    1s
     0     0 4797.50679    0  333          - 4797.50679      -     -    1s
     0     0 4798.17250    0  348          - 4798.17250      -     -    1s
     0     0 4798.59101    0  336          - 4798.59101      -     -    1s
     0     0 4798.76320    0  342          - 4798.76320      -     -    1s
     0     0 4798.77884    0  334          - 4798.77884      -     -    1s
     0     0 4798.77897    0  339          - 4798.77897      -     -    1s
H    0     0                    102974.00000 4807.50558  95.3%     -    1s
     0     0 4807.50558    0  346 102974.000 4807.50558  95.3%     -    1s
H    0     0                    102958.00000 4807.50558  95.3%     -    1s
H    0     0                    101508.00000 4807.50558  95.3%     -    2s
H    0     0                    47122.000000 4808.49992  89.8%     -    2s
     0     0 4808.49992    0  383 47122.0000 4808.49992  89.8%     -    2s
     0     0 4808.50160    0  388 47122.0000 4808.50160  89.8%     -    2s
     0     0 4820.77288    0  360 47122.0000 4820.77288  89.8%     -    2s
H    0     0                    47118.000000 4820.77288  89.8%     -    2s
     0     0 4823.54587    0  353 47118.0000 4823.54587  89.8%     -    2s
     0     0 4823.81548    0  360 47118.0000 4823.81548  89.8%     -    2s
     0     0 4823.83092    0  366 47118.0000 4823.83092  89.8%     -    2s
     0     0 4831.72723    0  364 47118.0000 4831.72723  89.7%     -    2s
H    0     0                    38420.000000 4835.93803  87.4%     -    2s
     0     0 4835.93803    0  398 38420.0000 4835.93803  87.4%     -    2s
     0     0 4837.08979    0  383 38420.0000 4837.08979  87.4%     -    2s
     0     0 4837.25975    0  398 38420.0000 4837.25975  87.4%     -    2s
     0     0 4837.28913    0  396 38420.0000 4837.28913  87.4%     -    2s
     0     0 4859.70049    0  396 38420.0000 4859.70049  87.4%     -    3s
H    0     0                    38414.000000 4859.70049  87.3%     -    3s
     0     0 4863.28788    0  415 38414.0000 4863.28788  87.3%     -    3s
     0     0 4863.46589    0  422 38414.0000 4863.46589  87.3%     -    3s
     0     0 4863.47371    0  432 38414.0000 4863.47371  87.3%     -    3s
     0     0 4876.25996    0  413 38414.0000 4876.25996  87.3%     -    3s
H    0     0                    28780.000000 4876.25996  83.1%     -    3s
     0     0 4877.93613    0  434 28780.0000 4877.93613  83.1%     -    3s
     0     0 4878.85339    0  426 28780.0000 4878.85339  83.0%     -    3s
     0     0 4878.86433    0  420 28780.0000 4878.86433  83.0%     -    3s
     0     0 4894.25708    0  390 28780.0000 4894.25708  83.0%     -    3s
H    0     0                    28776.000000 4894.25708  83.0%     -    3s
     0     0 4897.20079    0  406 28776.0000 4897.20079  83.0%     -    4s
     0     0 4898.73382    0  403 28776.0000 4898.73382  83.0%     -    4s
     0     0 4898.84528    0  403 28776.0000 4898.84528  83.0%     -    4s
     0     0 4899.09619    0  405 28776.0000 4899.09619  83.0%     -    4s
     0     0 4899.33895    0  410 28776.0000 4899.33895  83.0%     -    4s
     0     0 4899.36044    0  413 28776.0000 4899.36044  83.0%     -    4s
     0     0 4913.40078    0  392 28776.0000 4913.40078  82.9%     -    4s
H    0     0                    12866.000000 4913.40078  61.8%     -    4s
     0     0 4916.94978    0  396 12866.0000 4916.94978  61.8%     -    4s
     0     0 4917.81544    0  425 12866.0000 4917.81544  61.8%     -    4s
     0     0 4918.35017    0  438 12866.0000 4918.35017  61.8%     -    4s
     0     0 4918.51333    0  436 12866.0000 4918.51333  61.8%     -    4s
     0     0 4918.67357    0  441 12866.0000 4918.67357  61.8%     -    4s
     0     0 4918.70652    0  433 12866.0000 4918.70652  61.8%     -    4s
     0     0 4945.60159    0  396 12866.0000 4945.60159  61.6%     -    5s
     0     0 4945.60159    0  157 12866.0000 4945.60159  61.6%     -    5s
     0     0 4945.60159    0  302 12866.0000 4945.60159  61.6%     -    5s
H    0     0                    12864.000000 4945.60159  61.6%     -    5s
     0     0 4945.60159    0  334 12864.0000 4945.60159  61.6%     -    5s
     0     0 4947.05868    0  343 12864.0000 4947.05868  61.5%     -    5s
     0     0 4954.71867    0  364 12864.0000 4954.71867  61.5%     -    5s
     0     0 4955.95706    0  362 12864.0000 4955.95706  61.5%     -    5s
     0     0 4956.21037    0  373 12864.0000 4956.21037  61.5%     -    5s
     0     0 4956.40791    0  375 12864.0000 4956.40791  61.5%     -    5s
     0     0 4956.42284    0  373 12864.0000 4956.42284  61.5%     -    5s
     0     0 5035.37545    0  372 12864.0000 5035.37545  60.9%     -    6s
     0     0 5036.81877    0  355 12864.0000 5036.81877  60.8%     -    6s
     0     0 5036.97831    0  366 12864.0000 5036.97831  60.8%     -    6s
     0     0 5078.51230    0  400 12864.0000 5078.51230  60.5%     -    6s
     0     0 5080.66715    0  389 12864.0000 5080.66715  60.5%     -    6s
H    0     0                    9002.0000000 5080.66715  43.6%     -    6s
     0     0 5080.87186    0  392 9002.00000 5080.87186  43.6%     -    6s
     0     0 5193.82416    0  377 9002.00000 5193.82416  42.3%     -    6s
     0     0 5200.24193    0  392 9002.00000 5200.24193  42.2%     -    6s
     0     0 5204.64377    0  410 9002.00000 5204.64377  42.2%     -    6s
     0     0 5204.96073    0  429 9002.00000 5204.96073  42.2%     -    6s
     0     0 5236.77828    0  379 9002.00000 5236.77828  41.8%     -    6s
     0     0 5243.10936    0  395 9002.00000 5243.10936  41.8%     -    6s
     0     0 5243.86099    0  424 9002.00000 5243.86099  41.7%     -    7s
     0     0 5244.01237    0  435 9002.00000 5244.01237  41.7%     -    7s
     0     0 5320.85771    0  423 9002.00000 5320.85771  40.9%     -    7s
     0     0 5329.15531    0  422 9002.00000 5329.15531  40.8%     -    7s
     0     0 5329.41429    0  424 9002.00000 5329.41429  40.8%     -    7s
     0     0 5431.40209    0  412 9002.00000 5431.40209  39.7%     -    7s
     0     0 5435.24273    0  421 9002.00000 5435.24273  39.6%     -    7s
     0     0 5435.78152    0  428 9002.00000 5435.78152  39.6%     -    7s
     0     0 5585.89710    0  446 9002.00000 5585.89710  37.9%     -    7s
     0     0 5627.19148    0  438 9002.00000 5627.19148  37.5%     -    7s
     0     0 5629.21276    0  442 9002.00000 5629.21276  37.5%     -    8s
     0     0 5629.52440    0  454 9002.00000 5629.52440  37.5%     -    8s
     0     0 5738.72182    0  434 9002.00000 5738.72182  36.3%     -    8s
H    0     0                    6962.0000000 5738.72182  17.6%     -    8s
     0     0 5741.92921    0  437 6962.00000 5741.92921  17.5%     -    8s
     0     0 5742.42532    0  457 6962.00000 5742.42532  17.5%     -    8s
     0     0 5755.66781    0  429 6962.00000 5755.66781  17.3%     -    8s
     0     0 5758.15987    0  450 6962.00000 5758.15987  17.3%     -    8s
     0     0 5759.65709    0  461 6962.00000 5759.65709  17.3%     -    8s
     0     0 5759.78415    0  465 6962.00000 5759.78415  17.3%     -    8s
     0     0 5787.83340    0  473 6962.00000 5787.83340  16.9%     -    8s
     0     0 5792.07369    0  474 6962.00000 5792.07369  16.8%     -    9s
     0     0 5794.63008    0  489 6962.00000 5794.63008  16.8%     -    9s
     0     0 5794.88039    0  505 6962.00000 5794.88039  16.8%     -    9s
     0     0 5809.07752    0  492 6962.00000 5809.07752  16.6%     -    9s
     0     0 5810.40199    0  499 6962.00000 5810.40199  16.5%     -    9s
     0     0 5853.57110    0  483 6962.00000 5853.57110  15.9%     -    9s
H    0     0                    6960.0000000 5853.57110  15.9%     -    9s
     0     0 5861.86264    0  488 6960.00000 5861.86264  15.8%     -    9s
     0     0 5868.09936    0  474 6960.00000 5868.09936  15.7%     -    9s
     0     0 5870.14679    0  481 6960.00000 5870.14679  15.7%     -    9s
     0     0 5871.11365    0  486 6960.00000 5871.11365  15.6%     -   10s
     0     0 5900.83316    0  477 6960.00000 5900.83316  15.2%     -   10s
H    0     0                    6958.0000000 5900.83316  15.2%     -   10s
     0     0 5917.32250    0  479 6958.00000 5917.32250  15.0%     -   10s
     0     0 5918.97829    0  498 6958.00000 5918.97829  14.9%     -   10s
     0     0 5919.23275    0  501 6958.00000 5919.23275  14.9%     -   10s
     0     0 5943.96137    0  451 6958.00000 5943.96137  14.6%     -   10s
     0     0 5948.47731    0  454 6958.00000 5948.47731  14.5%     -   10s
     0     0 5948.93923    0  462 6958.00000 5948.93923  14.5%     -   10s
     0     0 5982.00801    0  391 6958.00000 5982.00801  14.0%     -   10s
     0     0 5990.66702    0  442 6958.00000 5990.66702  13.9%     -   11s
     0     0 5991.40450    0  406 6958.00000 5991.40450  13.9%     -   11s
     0     0 6033.39228    0  411 6958.00000 6033.39228  13.3%     -   11s
     0     0 6046.11871    0  437 6958.00000 6046.11871  13.1%     -   11s
     0     0 6047.01442    0  469 6958.00000 6047.01442  13.1%     -   11s
     0     0 6063.49287    0  438 6958.00000 6063.49287  12.9%     -   11s
     0     0 6066.86224    0  436 6958.00000 6066.86224  12.8%     -   11s
     0     0 6067.32266    0  451 6958.00000 6067.32266  12.8%     -   11s
     0     0 6086.24073    0  450 6958.00000 6086.24073  12.5%     -   11s
     0     0 6087.90208    0  460 6958.00000 6087.90208  12.5%     -   12s
     0     0 6089.98982    0  473 6958.00000 6089.98982  12.5%     -   12s
     0     0 6089.98982    0  473 6958.00000 6089.98982  12.5%     -   12s
     0     0 6090.19082    0  180 6958.00000 6090.19082  12.5%     -   12s
     0     0 6090.19082    0  320 6958.00000 6090.19082  12.5%     -   13s
     0     0 6090.19082    0  350 6958.00000 6090.19082  12.5%     -   13s
     0     0 6090.19082    0  378 6958.00000 6090.19082  12.5%     -   13s
     0     0 6090.19082    0  370 6958.00000 6090.19082  12.5%     -   13s
     0     0 6090.19082    0  418 6958.00000 6090.19082  12.5%     -   13s
     0     0 6090.19082    0  444 6958.00000 6090.19082  12.5%     -   13s
     0     0 6090.44533    0  433 6958.00000 6090.44533  12.5%     -   13s
     0     0 6090.59577    0  450 6958.00000 6090.59577  12.5%     -   13s
     0     0 6090.70614    0  452 6958.00000 6090.70614  12.5%     -   13s
     0     0 6090.74723    0  463 6958.00000 6090.74723  12.5%     -   13s
     0     0 6169.41525    0  399 6958.00000 6169.41525  11.3%     -   13s
     0     0 6169.58992    0  421 6958.00000 6169.58992  11.3%     -   13s
     0     0 6177.49238    0  369 6958.00000 6177.49238  11.2%     -   13s
     0     0 6177.81810    0  273 6958.00000 6177.81810  11.2%     -   14s
     0     2 6177.81810    0  266 6958.00000 6177.81810  11.2%     -   14s
    39    46 6335.50341    6  325 6958.00000 6192.75653  11.0%   903   15s
H   71    68                    6366.0000000 6192.75653  2.72%   853   15s
H  111    52                    6348.0000000 6195.58583  2.40%   639   15s
H  115    52                    6288.0000000 6199.71932  1.40%   638   15s

Cutting planes:
  Gomory: 2
  Cover: 33
  Implied bound: 2
  Clique: 70
  MIR: 155
  StrongCG: 76
  GUB cover: 116
  Inf proof: 1
  Zero half: 18
  Mod-K: 1
  RLT: 1
  Relax-and-lift: 2

Explored 179 nodes (212275 simplex iterations) in 16.01 seconds (31.91 work units)
Thread count was 8 (of 8 available processors)

Solution count 10: 6288 6348 6366 ... 28776

Time limit reached
Best objective 6.288000000000e+03, best bound 6.201000000000e+03, gap 1.3836%
